NAME : X-n513-k21
COMMENT : "Generated by Uchoa, Pecin, Pessoa, Poggi, Subramanian, and Vidal (2013)"
TYPE : CVRP
DIMENSION : 513
EDGE_WEIGHT_TYPE : EUC_2D
CAPACITY : 142
NODE_COORD_SECTION
1 500 500
2 425 323
3 806 514
4 853 637
5 326 818
6 601 664
7 680 704
8 358 401
9 688 267
10 146 846
11 171 615
12 962 75
13 710 565
14 662 574
15 665 599
16 112 811
17 439 69
18 573 69
19 997 647
20 338 524
21 626 29
22 633 570
23 957 890
24 746 397
25 224 83
26 425 827
27 787 99
28 518 378
29 890 763
30 860 608
31 683 188
32 417 680
33 483 987
34 676 197
35 294 710
36 284 281
37 568 565
38 942 896
39 223 358
40 538 428
41 910 702
42 550 516
43 524 467
44 675 128
45 977 488
46 725 890
47 205 512
48 768 660
49 443 407
50 518 363
51 730 609
52 973 64
53 683 832
54 308 298
55 510 14
56 17 647
57 275 527
58 303 571
59 415 624
60 713 483
61 502 147
62 38 76
63 265 477
64 446 909
65 849 738
66 878 222
67 334 250
68 683 28
69 502 235
70 513 433
71 850 764
72 465 213
73 854 966
74 465 648
75 491 477
76 916 597
77 999 146
78 581 824
79 892 989
80 734 581
81 232 386
82 538 431
83 139 541
84 697 331
85 557 181
86 339 957
87 271 514
88 162 281
89 175 424
90 819 403
91 783 931
92 562 627
93 995 892
94 135 789
95 117 954
96 911 834
97 125 757
98 279 646
99 175 386
100 296 128
101 379 78
102 567 526
103 809 171
104 389 7
105 772 308
106 143 492
107 322 894
108 935 730
109 24 791
110 482 626
111 974 278
112 258 823
113 58 256
114 884 523
115 475 692
116 763 576
117 498 330
118 978 797
119 491 640
120 428 548
121 174 25
122 222 572
123 139 270
124 314 61
125 618 247
126 402 994
127 491 870
128 58 704
129 563 291
130 131 720
131 69 366
132 376 831
133 448 343
134 352 424
135 351 829
136 560 60
137 914 981
138 835 298
139 267 968
140 983 778
141 305 670
142 677 546
143 701 632
144 593 635
145 170 268
146 805 891
147 989 313
148 419 48
149 758 526
150 472 66
151 419 642
152 66 699
153 522 581
154 763 327
155 736 892
156 220 35
157 620 463
158 87 942
159 635 473
160 141 772
161 411 593
162 684 692
163 264 440
164 171 385
165 959 282
166 118 379
167 727 988
168 228 622
169 529 231
170 789 316
171 577 949
172 308 992
173 91 33
174 415 835
175 323 299
176 987 269
177 818 672
178 550 782
179 929 654
180 917 999
181 584 19
182 73 17
183 305 771
184 327 985
185 468 340
186 692 921
187 822 44
188 529 801
189 252 789
190 441 883
191 799 15
192 409 285
193 921 912
194 185 815
195 11 860
196 934 42
197 162 143
198 116 639
199 185 898
200 644 943
201 869 312
202 254 796
203 501 86
204 163 620
205 633 133
206 948 742
207 92 529
208 691 976
209 252 718
210 371 447
211 545 965
212 504 676
213 227 60
214 30 899
215 398 274
216 460 653
217 262 554
218 258 600
219 646 981
220 491 605
221 764 475
222 715 67
223 234 746
224 111 495
225 342 496
226 888 336
227 560 874
228 911 52
229 309 177
230 596 454
231 977 808
232 56 272
233 181 471
234 484 988
235 289 633
236 796 913
237 178 219
238 524 516
239 255 573
240 954 1
241 722 654
242 518 137
243 88 495
244 433 330
245 939 901
246 595 961
247 951 404
248 715 956
249 156 471
250 713 616
251 460 949
252 357 700
253 406 772
254 156 745
255 189 916
256 498 652
257 924 598
258 40 507
259 160 733
260 353 665
261 648 635
262 609 662
263 44 591
264 189 622
265 758 634
266 484 682
267 647 642
268 488 618
269 739 645
270 502 601
271 79 463
272 106 709
273 631 577
274 266 653
275 68 549
276 782 596
277 328 752
278 216 764
279 228 334
280 39 494
281 432 519
282 17 636
283 365 669
284 284 656
285 515 661
286 131 872
287 58 388
288 610 626
289 297 531
290 728 700
291 118 496
292 753 510
293 591 648
294 10 513
295 263 861
296 116 727
297 228 732
298 183 733
299 79 536
300 219 717
301 184 727
302 164 684
303 121 722
304 311 625
305 110 712
306 204 724
307 179 790
308 242 728
309 700 602
310 12 440
311 92 664
312 687 608
313 576 520
314 619 668
315 2 770
316 689 614
317 273 795
318 670 622
319 351 703
320 37 884
321 439 752
322 310 576
323 73 457
324 242 839
325 565 629
326 961 754
327 548 608
328 340 694
329 387 643
330 655 637
331 735 499
332 506 675
333 18 457
334 127 530
335 306 597
336 267 712
337 719 490
338 218 615
339 297 575
340 154 759
341 186 516
342 610 659
343 421 630
344 572 520
345 57 672
346 88 728
347 13 512
348 573 664
349 112 761
350 589 737
351 359 663
352 732 501
353 118 871
354 168 777
355 349 606
356 343 632
357 764 912
358 330 606
359 383 717
360 242 665
361 330 661
362 359 634
363 270 682
364 131 744
365 235 557
366 154 673
367 410 622
368 34 593
369 789 712
370 601 803
371 557 731
372 46 784
373 109 480
374 333 755
375 353 642
376 411 768
377 347 601
378 175 561
379 606 451
380 348 658
381 188 796
382 453 855
383 600 675
384 313 597
385 802 569
386 390 737
387 455 570
388 676 642
389 617 795
390 238 748
391 519 690
392 640 633
393 29 435
394 579 361
395 614 547
396 270 627
397 695 617
398 136 446
399 179 769
400 182 718
401 118 449
402 650 520
403 154 412
404 185 776
405 665 642
406 11 513
407 335 642
408 378 697
409 49 564
410 365 805
411 308 730
412 640 776
413 169 720
414 226 744
415 643 616
416 582 522
417 678 545
418 565 565
419 411 449
420 774 557
421 467 625
422 240 552
423 513 635
424 643 627
425 31 499
426 476 556
427 92 562
428 699 606
429 723 565
430 676 382
431 104 337
432 181 846
433 332 761
434 656 659
435 123 806
436 372 727
437 622 737
438 886 668
439 130 804
440 429 696
441 337 809
442 145 717
443 161 642
444 76 787
445 302 650
446 458 725
447 233 529
448 574 742
449 659 593
450 777 565
451 376 751
452 170 895
453 27 513
454 176 751
455 149 566
456 279 673
457 269 700
458 427 710
459 428 661
460 94 483
461 674 700
462 18 398
463 656 628
464 49 488
465 665 706
466 62 519
467 522 638
468 228 762
469 231 527
470 146 811
471 161 286
472 651 636
473 662 668
474 366 745
475 173 708
476 748 588
477 171 610
478 191 686
479 79 432
480 321 708
481 614 614
482 339 655
483 502 561
484 266 647
485 130 680
486 687 567
487 11 504
488 523 688
489 102 614
490 730 598
491 303 683
492 484 712
493 101 747
494 225 682
495 31 623
496 371 640
497 80 401
498 642 718
499 780 648
500 149 448
501 37 580
502 374 696
503 212 489
504 119 675
505 777 609
506 668 628
507 527 562
508 649 760
509 94 663
510 85 721
511 437 708
512 46 689
513 375 659
PICKUP_AND_DELIVERY_SECTION
1 0 0 1000000000 0 0 0
2 0 0 1000000000 0 0 8
3 0 0 1000000000 0 0 2
4 0 0 1000000000 0 0 10
5 0 0 1000000000 0 0 7
6 0 0 1000000000 0 0 10
7 0 0 1000000000 0 0 7
8 0 0 1000000000 0 0 7
9 0 0 1000000000 0 0 2
10 0 0 1000000000 0 0 9
11 0 0 1000000000 0 9 0
12 0 0 1000000000 0 0 1
13 0 0 1000000000 0 0 3
14 0 0 1000000000 0 0 9
15 0 0 1000000000 0 0 4
16 0 0 1000000000 0 0 10
17 0 0 1000000000 0 0 3
18 0 0 1000000000 0 0 4
19 0 0 1000000000 0 0 2
20 0 0 1000000000 0 0 8
21 0 0 1000000000 0 2 0
22 0 0 1000000000 0 0 9
23 0 0 1000000000 0 0 2
24 0 0 1000000000 0 0 8
25 0 0 1000000000 0 0 8
26 0 0 1000000000 0 0 5
27 0 0 1000000000 0 0 8
28 0 0 1000000000 0 0 4
29 0 0 1000000000 0 0 5
30 0 0 1000000000 0 0 9
31 0 0 1000000000 0 8 0
32 0 0 1000000000 0 0 5
33 0 0 1000000000 0 0 2
34 0 0 1000000000 0 0 10
35 0 0 1000000000 0 0 1
36 0 0 1000000000 0 0 3
37 0 0 1000000000 0 0 9
38 0 0 1000000000 0 0 3
39 0 0 1000000000 0 0 8
40 0 0 1000000000 0 0 4
41 0 0 1000000000 0 2 0
42 0 0 1000000000 0 0 6
43 0 0 1000000000 0 0 8
44 0 0 1000000000 0 0 9
45 0 0 1000000000 0 0 4
46 0 0 1000000000 0 0 1
47 0 0 1000000000 0 0 6
48 0 0 1000000000 0 0 2
49 0 0 1000000000 0 0 1
50 0 0 1000000000 0 0 10
51 0 0 1000000000 0 3 0
52 0 0 1000000000 0 0 4
53 0 0 1000000000 0 0 2
54 0 0 1000000000 0 0 7
55 0 0 1000000000 0 0 3
56 0 0 1000000000 0 0 6
57 0 0 1000000000 0 0 1
58 0 0 1000000000 0 0 5
59 0 0 1000000000 0 0 4
60 0 0 1000000000 0 0 1
61 0 0 1000000000 0 7 0
62 0 0 1000000000 0 0 4
63 0 0 1000000000 0 0 9
64 0 0 1000000000 0 0 7
65 0 0 1000000000 0 0 5
66 0 0 1000000000 0 0 4
67 0 0 1000000000 0 0 6
68 0 0 1000000000 0 0 10
69 0 0 1000000000 0 0 1
70 0 0 1000000000 0 0 6
71 0 0 1000000000 0 1 0
72 0 0 1000000000 0 0 8
73 0 0 1000000000 0 0 3
74 0 0 1000000000 0 0 5
75 0 0 1000000000 0 0 5
76 0 0 1000000000 0 0 6
77 0 0 1000000000 0 0 1
78 0 0 1000000000 0 0 9
79 0 0 1000000000 0 0 1
80 0 0 1000000000 0 0 2
81 0 0 1000000000 0 5 0
82 0 0 1000000000 0 0 10
83 0 0 1000000000 0 0 7
84 0 0 1000000000 0 0 6
85 0 0 1000000000 0 0 5
86 0 0 1000000000 0 0 10
87 0 0 1000000000 0 0 4
88 0 0 1000000000 0 0 6
89 0 0 1000000000 0 0 10
90 0 0 1000000000 0 0 3
91 0 0 1000000000 0 10 0
92 0 0 1000000000 0 0 4
93 0 0 1000000000 0 0 10
94 0 0 1000000000 0 0 3
95 0 0 1000000000 0 0 8
96 0 0 1000000000 0 0 9
97 0 0 1000000000 0 0 3
98 0 0 1000000000 0 0 2
99 0 0 1000000000 0 0 8
100 0 0 1000000000 0 0 7
101 0 0 1000000000 0 7 0
102 0 0 1000000000 0 0 8
103 0 0 1000000000 0 0 2
104 0 0 1000000000 0 0 9
105 0 0 1000000000 0 0 4
106 0 0 1000000000 0 0 9
107 0 0 1000000000 0 0 1
108 0 0 1000000000 0 0 6
109 0 0 1000000000 0 0 8
110 0 0 1000000000 0 0 1
111 0 0 1000000000 0 8 0
112 0 0 1000000000 0 0 2
113 0 0 1000000000 0 0 5
114 0 0 1000000000 0 0 6
115 0 0 1000000000 0 0 4
116 0 0 1000000000 0 0 10
117 0 0 1000000000 0 0 4
118 0 0 1000000000 0 0 4
119 0 0 1000000000 0 0 2
120 0 0 1000000000 0 0 9
121 0 0 1000000000 0 2 0
122 0 0 1000000000 0 0 2
123 0 0 1000000000 0 0 5
124 0 0 1000000000 0 0 9
125 0 0 1000000000 0 0 1
126 0 0 1000000000 0 0 5
127 0 0 1000000000 0 0 2
128 0 0 1000000000 0 0 9
129 0 0 1000000000 0 0 7
130 0 0 1000000000 0 0 8
131 0 0 1000000000 0 10 0
132 0 0 1000000000 0 0 8
133 0 0 1000000000 0 0 3
134 0 0 1000000000 0 0 5
135 0 0 1000000000 0 0 8
136 0 0 1000000000 0 0 9
137 0 0 1000000000 0 0 3
138 0 0 1000000000 0 0 9
139 0 0 1000000000 0 0 9
140 0 0 1000000000 0 0 7
141 0 0 1000000000 0 9 0
142 0 0 1000000000 0 0 5
143 0 0 1000000000 0 0 3
144 0 0 1000000000 0 0 1
145 0 0 1000000000 0 0 9
146 0 0 1000000000 0 0 1
147 0 0 1000000000 0 0 6
148 0 0 1000000000 0 0 2
149 0 0 1000000000 0 0 5
150 0 0 1000000000 0 0 8
151 0 0 1000000000 0 3 0
152 0 0 1000000000 0 0 5
153 0 0 1000000000 0 0 7
154 0 0 1000000000 0 0 5
155 0 0 1000000000 0 0 2
156 0 0 1000000000 0 0 1
157 0 0 1000000000 0 0 2
158 0 0 1000000000 0 0 7
159 0 0 1000000000 0 0 7
160 0 0 1000000000 0 0 9
161 0 0 1000000000 0 4 0
162 0 0 1000000000 0 0 5
163 0 0 1000000000 0 0 3
164 0 0 1000000000 0 0 9
165 0 0 1000000000 0 0 2
166 0 0 1000000000 0 0 6
167 0 0 1000000000 0 0 5
168 0 0 1000000000 0 0 7
169 0 0 1000000000 0 0 9
170 0 0 1000000000 0 0 10
171 0 0 1000000000 0 9 0
172 0 0 1000000000 0 0 2
173 0 0 1000000000 0 0 7
174 0 0 1000000000 0 0 8
175 0 0 1000000000 0 0 2
176 0 0 1000000000 0 0 9
177 0 0 1000000000 0 0 7
178 0 0 1000000000 0 0 8
179 0 0 1000000000 0 0 5
180 0 0 1000000000 0 0 6
181 0 0 1000000000 0 10 0
182 0 0 1000000000 0 0 10
183 0 0 1000000000 0 0 3
184 0 0 1000000000 0 0 5
185 0 0 1000000000 0 0 4
186 0 0 1000000000 0 0 4
187 0 0 1000000000 0 0 3
188 0 0 1000000000 0 0 6
189 0 0 1000000000 0 0 8
190 0 0 1000000000 0 0 8
191 0 0 1000000000 0 9 0
192 0 0 1000000000 0 0 9
193 0 0 1000000000 0 0 4
194 0 0 1000000000 0 0 5
195 0 0 1000000000 0 0 9
196 0 0 1000000000 0 0 5
197 0 0 1000000000 0 0 7
198 0 0 1000000000 0 0 8
199 0 0 1000000000 0 0 10
200 0 0 1000000000 0 0 3
201 0 0 1000000000 0 2 0
202 0 0 1000000000 0 0 3
203 0 0 1000000000 0 0 3
204 0 0 1000000000 0 0 8
205 0 0 1000000000 0 0 6
206 0 0 1000000000 0 0 8
207 0 0 1000000000 0 0 2
208 0 0 1000000000 0 0 8
209 0 0 1000000000 0 0 7
210 0 0 1000000000 0 0 9
211 0 0 1000000000 0 3 0
212 0 0 1000000000 0 0 8
213 0 0 1000000000 0 0 4
214 0 0 1000000000 0 0 8
215 0 0 1000000000 0 0 10
216 0 0 1000000000 0 0 9
217 0 0 1000000000 0 0 3
218 0 0 1000000000 0 0 3
219 0 0 1000000000 0 0 8
220 0 0 1000000000 0 0 8
221 0 0 1000000000 0 3 0
222 0 0 1000000000 0 0 4
223 0 0 1000000000 0 0 6
224 0 0 1000000000 0 0 8
225 0 0 1000000000 0 0 7
226 0 0 1000000000 0 0 2
227 0 0 1000000000 0 0 8
228 0 0 1000000000 0 0 1
229 0 0 1000000000 0 0 4
230 0 0 1000000000 0 0 10
231 0 0 1000000000 0 10 0
232 0 0 1000000000 0 0 9
233 0 0 1000000000 0 0 10
234 0 0 1000000000 0 0 2
235 0 0 1000000000 0 0 2
236 0 0 1000000000 0 0 9
237 0 0 1000000000 0 0 2
238 0 0 1000000000 0 0 4
239 0 0 1000000000 0 0 9
240 0 0 1000000000 0 0 6
241 0 0 1000000000 0 9 0
242 0 0 1000000000 0 0 9
243 0 0 1000000000 0 0 9
244 0 0 1000000000 0 0 3
245 0 0 1000000000 0 0 2
246 0 0 1000000000 0 0 8
247 0 0 1000000000 0 0 10
248 0 0 1000000000 0 0 6
249 0 0 1000000000 0 0 1
250 0 0 1000000000 0 0 3
251 0 0 1000000000 0 10 0
252 0 0 1000000000 0 0 4
253 0 0 1000000000 0 0 1
254 0 0 1000000000 0 0 5
255 0 0 1000000000 0 0 3
256 0 0 1000000000 0 0 9
257 0 0 1000000000 0 0 1
258 0 0 1000000000 0 0 7
259 0 0 1000000000 0 0 3
260 0 0 1000000000 0 0 3
261 0 0 1000000000 0 6 0
262 0 0 1000000000 0 0 9
263 0 0 1000000000 0 0 1
264 0 0 1000000000 0 0 4
265 0 0 1000000000 0 0 3
266 0 0 1000000000 0 0 9
267 0 0 1000000000 0 0 9
268 0 0 1000000000 0 0 1
269 0 0 1000000000 0 0 8
270 0 0 1000000000 0 0 2
271 0 0 1000000000 0 10 0
272 0 0 1000000000 0 0 6
273 0 0 1000000000 0 0 2
274 0 0 1000000000 0 0 8
275 0 0 1000000000 0 0 8
276 0 0 1000000000 0 0 6
277 0 0 1000000000 0 0 6
278 0 0 1000000000 0 0 10
279 0 0 1000000000 0 0 9
280 0 0 1000000000 0 0 8
281 0 0 1000000000 0 9 0
282 0 0 1000000000 0 0 8
283 0 0 1000000000 0 0 10
284 0 0 1000000000 0 0 9
285 0 0 1000000000 0 0 5
286 0 0 1000000000 0 0 8
287 0 0 1000000000 0 0 7
288 0 0 1000000000 0 0 10
289 0 0 1000000000 0 0 5
290 0 0 1000000000 0 0 4
291 0 0 1000000000 0 5 0
292 0 0 1000000000 0 0 7
293 0 0 1000000000 0 0 7
294 0 0 1000000000 0 0 3
295 0 0 1000000000 0 0 10
296 0 0 1000000000 0 0 8
297 0 0 1000000000 0 0 10
298 0 0 1000000000 0 0 8
299 0 0 1000000000 0 0 5
300 0 0 1000000000 0 0 9
301 0 0 1000000000 0 7 0
302 0 0 1000000000 0 0 10
303 0 0 1000000000 0 0 2
304 0 0 1000000000 0 0 6
305 0 0 1000000000 0 0 4
306 0 0 1000000000 0 0 1
307 0 0 1000000000 0 0 9
308 0 0 1000000000 0 0 3
309 0 0 1000000000 0 0 2
310 0 0 1000000000 0 0 10
311 0 0 1000000000 0 3 0
312 0 0 1000000000 0 0 5
313 0 0 1000000000 0 0 5
314 0 0 1000000000 0 0 1
315 0 0 1000000000 0 0 9
316 0 0 1000000000 0 0 7
317 0 0 1000000000 0 0 1
318 0 0 1000000000 0 0 10
319 0 0 1000000000 0 0 6
320 0 0 1000000000 0 0 2
321 0 0 1000000000 0 8 0
322 0 0 1000000000 0 0 6
323 0 0 1000000000 0 0 6
324 0 0 1000000000 0 0 7
325 0 0 1000000000 0 0 1
326 0 0 1000000000 0 0 9
327 0 0 1000000000 0 0 2
328 0 0 1000000000 0 0 3
329 0 0 1000000000 0 0 10
330 0 0 1000000000 0 0 1
331 0 0 1000000000 0 1 0
332 0 0 1000000000 0 0 9
333 0 0 1000000000 0 0 5
334 0 0 1000000000 0 0 8
335 0 0 1000000000 0 0 1
336 0 0 1000000000 0 0 8
337 0 0 1000000000 0 0 5
338 0 0 1000000000 0 0 10
339 0 0 1000000000 0 0 5
340 0 0 1000000000 0 0 10
341 0 0 1000000000 0 3 0
342 0 0 1000000000 0 0 8
343 0 0 1000000000 0 0 1
344 0 0 1000000000 0 0 7
345 0 0 1000000000 0 0 8
346 0 0 1000000000 0 0 4
347 0 0 1000000000 0 0 10
348 0 0 1000000000 0 0 5
349 0 0 1000000000 0 0 1
350 0 0 1000000000 0 0 9
351 0 0 1000000000 0 4 0
352 0 0 1000000000 0 0 5
353 0 0 1000000000 0 0 9
354 0 0 1000000000 0 0 5
355 0 0 1000000000 0 0 7
356 0 0 1000000000 0 0 8
357 0 0 1000000000 0 0 2
358 0 0 1000000000 0 0 6
359 0 0 1000000000 0 0 6
360 0 0 1000000000 0 0 7
361 0 0 1000000000 0 2 0
362 0 0 1000000000 0 0 10
363 0 0 1000000000 0 0 9
364 0 0 1000000000 0 0 6
365 0 0 1000000000 0 0 4
366 0 0 1000000000 0 0 1
367 0 0 1000000000 0 0 4
368 0 0 1000000000 0 0 1
369 0 0 1000000000 0 0 5
370 0 0 1000000000 0 0 7
371 0 0 1000000000 0 6 0
372 0 0 1000000000 0 0 10
373 0 0 1000000000 0 0 4
374 0 0 1000000000 0 0 9
375 0 0 1000000000 0 0 7
376 0 0 1000000000 0 0 4
377 0 0 1000000000 0 0 8
378 0 0 1000000000 0 0 1
379 0 0 1000000000 0 0 3
380 0 0 1000000000 0 0 7
381 0 0 1000000000 0 1 0
382 0 0 1000000000 0 0 4
383 0 0 1000000000 0 0 10
384 0 0 1000000000 0 0 1
385 0 0 1000000000 0 0 8
386 0 0 1000000000 0 0 5
387 0 0 1000000000 0 0 10
388 0 0 1000000000 0 0 7
389 0 0 1000000000 0 0 5
390 0 0 1000000000 0 0 2
391 0 0 1000000000 0 6 0
392 0 0 1000000000 0 0 2
393 0 0 1000000000 0 0 4
394 0 0 1000000000 0 0 9
395 0 0 1000000000 0 0 10
396 0 0 1000000000 0 0 4
397 0 0 1000000000 0 0 10
398 0 0 1000000000 0 0 9
399 0 0 1000000000 0 0 6
400 0 0 1000000000 0 0 6
401 0 0 1000000000 0 1 0
402 0 0 1000000000 0 0 7
403 0 0 1000000000 0 0 6
404 0 0 1000000000 0 0 1
405 0 0 1000000000 0 0 7
406 0 0 1000000000 0 0 3
407 0 0 1000000000 0 0 9
408 0 0 1000000000 0 0 7
409 0 0 1000000000 0 0 3
410 0 0 1000000000 0 0 3
411 0 0 1000000000 0 1 0
412 0 0 1000000000 0 0 8
413 0 0 1000000000 0 0 4
414 0 0 1000000000 0 0 1
415 0 0 1000000000 0 0 9
416 0 0 1000000000 0 0 8
417 0 0 1000000000 0 0 4
418 0 0 1000000000 0 0 7
419 0 0 1000000000 0 0 6
420 0 0 1000000000 0 0 8
421 0 0 1000000000 0 3 0
422 0 0 1000000000 0 0 4
423 0 0 1000000000 0 0 1
424 0 0 1000000000 0 0 8
425 0 0 1000000000 0 0 7
426 0 0 1000000000 0 0 1
427 0 0 1000000000 0 0 7
428 0 0 1000000000 0 0 10
429 0 0 1000000000 0 0 6
430 0 0 1000000000 0 0 8
431 0 0 1000000000 0 6 0
432 0 0 1000000000 0 0 3
433 0 0 1000000000 0 0 3
434 0 0 1000000000 0 0 10
435 0 0 1000000000 0 0 4
436 0 0 1000000000 0 0 6
437 0 0 1000000000 0 0 9
438 0 0 1000000000 0 0 7
439 0 0 1000000000 0 0 3
440 0 0 1000000000 0 0 6
441 0 0 1000000000 0 3 0
442 0 0 1000000000 0 0 5
443 0 0 1000000000 0 0 4
444 0 0 1000000000 0 0 5
445 0 0 1000000000 0 0 4
446 0 0 1000000000 0 0 10
447 0 0 1000000000 0 0 8
448 0 0 1000000000 0 0 7
449 0 0 1000000000 0 0 5
450 0 0 1000000000 0 0 5
451 0 0 1000000000 0 7 0
452 0 0 1000000000 0 0 6
453 0 0 1000000000 0 0 1
454 0 0 1000000000 0 0 10
455 0 0 1000000000 0 0 6
456 0 0 1000000000 0 0 5
457 0 0 1000000000 0 0 9
458 0 0 1000000000 0 0 8
459 0 0 1000000000 0 0 10
460 0 0 1000000000 0 0 9
461 0 0 1000000000 0 6 0
462 0 0 1000000000 0 0 8
463 0 0 1000000000 0 0 9
464 0 0 1000000000 0 0 2
465 0 0 1000000000 0 0 10
466 0 0 1000000000 0 0 1
467 0 0 1000000000 0 0 4
468 0 0 1000000000 0 0 2
469 0 0 1000000000 0 0 1
470 0 0 1000000000 0 0 9
471 0 0 1000000000 0 6 0
472 0 0 1000000000 0 0 1
473 0 0 1000000000 0 0 6
474 0 0 1000000000 0 0 8
475 0 0 1000000000 0 0 4
476 0 0 1000000000 0 0 2
477 0 0 1000000000 0 0 5
478 0 0 1000000000 0 0 7
479 0 0 1000000000 0 0 4
480 0 0 1000000000 0 0 9
481 0 0 1000000000 0 10 0
482 0 0 1000000000 0 0 2
483 0 0 1000000000 0 0 5
484 0 0 1000000000 0 0 8
485 0 0 1000000000 0 0 3
486 0 0 1000000000 0 0 7
487 0 0 1000000000 0 0 8
488 0 0 1000000000 0 0 3
489 0 0 1000000000 0 0 8
490 0 0 1000000000 0 0 3
491 0 0 1000000000 0 1 0
492 0 0 1000000000 0 0 6
493 0 0 1000000000 0 0 5
494 0 0 1000000000 0 0 5
495 0 0 1000000000 0 0 1
496 0 0 1000000000 0 0 4
497 0 0 1000000000 0 0 1
498 0 0 1000000000 0 0 3
499 0 0 1000000000 0 0 5
500 0 0 1000000000 0 0 3
501 0 0 1000000000 0 10 0
502 0 0 1000000000 0 0 7
503 0 0 1000000000 0 0 4
504 0 0 1000000000 0 0 3
505 0 0 1000000000 0 0 2
506 0 0 1000000000 0 0 6
507 0 0 1000000000 0 0 4
508 0 0 1000000000 0 0 5
509 0 0 1000000000 0 0 2
510 0 0 1000000000 0 0 10
511 0 0 1000000000 0 3 0
512 0 0 1000000000 0 0 5
513 0 0 1000000000 0 0 10
